File : Instances/p60
Use 138 s

21765

0 0 0 0 1 1 1 0 1 0 1 1 0 1 0 0 0 1 1 0 0 1 0 0 1 1 0 1 0 0 
18 6 21 27 21 6 21 27 18 17 4 17 13 13 6 18 13 10 27 27 18 21 5 24 10 18 27 17 4 21 6 4 4 21 27 6 8 8 24 21 18 8 6 4 8 4 13 21 6 10 24 24 24 21 8 6 11 8 18 25 4 17 18 8 13 11 5 17 6 25 18 6 6 8 5 13 10 5 8 24 10 17 8 25 4 13 4 5 27 25 17 6 25 25 5 13 11 6 17 17 17 21 25 18 4 24 4 24 27 13 6 4 27 6 11 8 11 25 17 8 8 11 17 6 4 21 21 11 4 17 11 24 25 10 5 8 13 13 17 10 11 27 11 11 25 5 24 21 27 25 24 17 10 17 8 11 5 21 13 13 13 27 10 24 5 27 5 4 13 21 5 8 17 10 4 21 24 10 4 10 5 21 24 6 11 8 11 10 17 21 21 21 6 4 25 6 25 21 10 6 
